NAME: tsp45_4
COMMENT: 45-tsp problem (Padberg/Rinaldi)
TYPE: TSP
DIMENSION: 45
EDGE_WEIGHT_TYPE : EUC_2D
NODE_COORD_SECTION
1 31 25
2 25 25
3 31 36
4 1 25
5 11 15
6 35 17
7 38 36
8 17 30
9 25 13
10 2 10
11 18 7
12 8 8
13 13 37
14 4 14
15 29 33
16 17 27
17 29 8
18 20 18
19 24 17
20 3 17
21 8 17
22 15 6
23 13 13
24 28 29
25 11 7
26 21 7
27 3 6
28 16 6
29 30 12
30 14 11
31 25 27
32 39 2
33 6 6
34 28 17
35 2 16
36 2 7
37 19 23
38 22 1
39 24 1
40 2 10
41 35 1
42 32 28
43 34 26
44 4 36
45 20 22
